c sudoku, order: 9, holes: 64
c 
c ......8.1
c 7..2.....
c ...5.6...
c ...7...5.
c .1....3..
c .8.......
c 5......2.
c .3..8....
c 6...4....
c 
p cnf 301 2810
-1 -2 0
-1 -3 0
-1 -4 0
-2 -3 0
-2 -4 0
-3 -4 0
-5 -6 0
-5 -7 0
-5 -8 0
-5 -9 0
-6 -7 0
-6 -8 0
-6 -9 0
-7 -8 0
-7 -9 0
-8 -9 0
-10 -11 0
-10 -12 0
-10 -13 0
-10 -14 0
-10 -15 0
-11 -12 0
-11 -13 0
-11 -14 0
-11 -15 0
-12 -13 0
-12 -14 0
-12 -15 0
-13 -14 0
-13 -15 0
-14 -15 0
-16 -17 0
-16 -18 0
-17 -18 0
-19 -20 0
-19 -21 0
-20 -21 0
-22 -23 0
-22 -24 0
-22 -25 0
-23 -24 0
-23 -25 0
-24 -25 0
-26 -27 0
-26 -28 0
-26 -29 0
-26 -30 0
-27 -28 0
-27 -29 0
-27 -30 0
-28 -29 0
-28 -30 0
-29 -30 0
-31 -32 0
-31 -33 0
-31 -34 0
-32 -33 0
-32 -34 0
-33 -34 0
-35 -36 0
-35 -37 0
-35 -38 0
-35 -39 0
-35 -40 0
-35 -41 0
-36 -37 0
-36 -38 0
-36 -39 0
-36 -40 0
-36 -41 0
-37 -38 0
-37 -39 0
-37 -40 0
-37 -41 0
-38 -39 0
-38 -40 0
-38 -41 0
-39 -40 0
-39 -41 0
-40 -41 0
-42 -43 0
-42 -44 0
-43 -44 0
-45 -46 0
-45 -47 0
-45 -48 0
-45 -49 0
-46 -47 0
-46 -48 0
-46 -49 0
-47 -48 0
-47 -49 0
-48 -49 0
-50 -51 0
-50 -52 0
-50 -53 0
-51 -52 0
-51 -53 0
-52 -53 0
-54 -55 0
-54 -56 0
-54 -57 0
-55 -56 0
-55 -57 0
-56 -57 0
-58 -59 0
-58 -60 0
-58 -61 0
-58 -62 0
-59 -60 0
-59 -61 0
-59 -62 0
-60 -61 0
-60 -62 0
-61 -62 0
-63 -64 0
-63 -65 0
-63 -66 0
-63 -67 0
-63 -68 0
-64 -65 0
-64 -66 0
-64 -67 0
-64 -68 0
-65 -66 0
-65 -67 0
-65 -68 0
-66 -67 0
-66 -68 0
-67 -68 0
-69 -70 0
-69 -71 0
-70 -71 0
-72 -73 0
-72 -74 0
-72 -75 0
-72 -76 0
-72 -77 0
-73 -74 0
-73 -75 0
-73 -76 0
-73 -77 0
-74 -75 0
-74 -76 0
-74 -77 0
-75 -76 0
-75 -77 0
-76 -77 0
-78 -79 0
-78 -80 0
-78 -81 0
-79 -80 0
-79 -81 0
-80 -81 0
-82 -83 0
-82 -84 0
-82 -85 0
-83 -84 0
-83 -85 0
-84 -85 0
-86 -87 0
-86 -88 0
-86 -89 0
-87 -88 0
-87 -89 0
-88 -89 0
-90 -91 0
-90 -92 0
-90 -93 0
-90 -94 0
-91 -92 0
-91 -93 0
-91 -94 0
-92 -93 0
-92 -94 0
-93 -94 0
-95 -96 0
-95 -97 0
-95 -98 0
-96 -97 0
-96 -98 0
-97 -98 0
-99 -100 0
-99 -101 0
-99 -102 0
-100 -101 0
-100 -102 0
-101 -102 0
-103 -104 0
-103 -105 0
-103 -106 0
-103 -107 0
-104 -105 0
-104 -106 0
-104 -107 0
-105 -106 0
-105 -107 0
-106 -107 0
-108 -109 0
-108 -110 0
-108 -111 0
-108 -112 0
-109 -110 0
-109 -111 0
-109 -112 0
-110 -111 0
-110 -112 0
-111 -112 0
-113 -114 0
-113 -115 0
-113 -116 0
-113 -117 0
-113 -118 0
-114 -115 0
-114 -116 0
-114 -117 0
-114 -118 0
-115 -116 0
-115 -117 0
-115 -118 0
-116 -117 0
-116 -118 0
-117 -118 0
-119 -120 0
-119 -121 0
-119 -122 0
-119 -123 0
-120 -121 0
-120 -122 0
-120 -123 0
-121 -122 0
-121 -123 0
-122 -123 0
-124 -125 0
-124 -126 0
-124 -127 0
-124 -128 0
-125 -126 0
-125 -127 0
-125 -128 0
-126 -127 0
-126 -128 0
-127 -128 0
-129 -130 0
-129 -131 0
-130 -131 0
-132 -133 0
-132 -134 0
-132 -135 0
-132 -136 0
-132 -137 0
-133 -134 0
-133 -135 0
-133 -136 0
-133 -137 0
-134 -135 0
-134 -136 0
-134 -137 0
-135 -136 0
-135 -137 0
-136 -137 0
-138 -139 0
-138 -140 0
-138 -141 0
-139 -140 0
-139 -141 0
-140 -141 0
-142 -143 0
-142 -144 0
-142 -145 0
-143 -144 0
-143 -145 0
-144 -145 0
-146 -147 0
-146 -148 0
-146 -149 0
-146 -150 0
-147 -148 0
-147 -149 0
-147 -150 0
-148 -149 0
-148 -150 0
-149 -150 0
-151 -152 0
-151 -153 0
-151 -154 0
-151 -155 0
-152 -153 0
-152 -154 0
-152 -155 0
-153 -154 0
-153 -155 0
-154 -155 0
-156 -157 0
-156 -158 0
-156 -159 0
-156 -160 0
-156 -161 0
-157 -158 0
-157 -159 0
-157 -160 0
-157 -161 0
-158 -159 0
-158 -160 0
-158 -161 0
-159 -160 0
-159 -161 0
-160 -161 0
-162 -163 0
-162 -164 0
-162 -165 0
-163 -164 0
-163 -165 0
-164 -165 0
-166 -167 0
-166 -168 0
-166 -169 0
-166 -170 0
-166 -171 0
-166 -172 0
-167 -168 0
-167 -169 0
-167 -170 0
-167 -171 0
-167 -172 0
-168 -169 0
-168 -170 0
-168 -171 0
-168 -172 0
-169 -170 0
-169 -171 0
-169 -172 0
-170 -171 0
-170 -172 0
-171 -172 0
-173 -174 0
-173 -175 0
-173 -176 0
-173 -177 0
-174 -175 0
-174 -176 0
-174 -177 0
-175 -176 0
-175 -177 0
-176 -177 0
-178 -179 0
-178 -180 0
-178 -181 0
-178 -182 0
-178 -183 0
-179 -180 0
-179 -181 0
-179 -182 0
-179 -183 0
-180 -181 0
-180 -182 0
-180 -183 0
-181 -182 0
-181 -183 0
-182 -183 0
-184 -185 0
-184 -186 0
-184 -187 0
-184 -188 0
-184 -189 0
-185 -186 0
-185 -187 0
-185 -188 0
-185 -189 0
-186 -187 0
-186 -188 0
-186 -189 0
-187 -188 0
-187 -189 0
-188 -189 0
-190 -191 0
-190 -192 0
-190 -193 0
-190 -194 0
-190 -195 0
-191 -192 0
-191 -193 0
-191 -194 0
-191 -195 0
-192 -193 0
-192 -194 0
-192 -195 0
-193 -194 0
-193 -195 0
-194 -195 0
-196 -197 0
-196 -198 0
-196 -199 0
-196 -200 0
-197 -198 0
-197 -199 0
-197 -200 0
-198 -199 0
-198 -200 0
-199 -200 0
-201 -202 0
-201 -203 0
-201 -204 0
-201 -205 0
-202 -203 0
-202 -204 0
-202 -205 0
-203 -204 0
-203 -205 0
-204 -205 0
-206 -207 0
-206 -208 0
-207 -208 0
-209 -210 0
-209 -211 0
-209 -212 0
-209 -213 0
-210 -211 0
-210 -212 0
-210 -213 0
-211 -212 0
-211 -213 0
-212 -213 0
-214 -215 0
-214 -216 0
-214 -217 0
-215 -216 0
-215 -217 0
-216 -217 0
-218 -219 0
-218 -220 0
-218 -221 0
-218 -222 0
-219 -220 0
-219 -221 0
-219 -222 0
-220 -221 0
-220 -222 0
-221 -222 0
-223 -224 0
-223 -225 0
-223 -226 0
-224 -225 0
-224 -226 0
-225 -226 0
-227 -228 0
-227 -229 0
-227 -230 0
-227 -231 0
-228 -229 0
-228 -230 0
-228 -231 0
-229 -230 0
-229 -231 0
-230 -231 0
-232 -233 0
-232 -234 0
-232 -235 0
-232 -236 0
-232 -237 0
-233 -234 0
-233 -235 0
-233 -236 0
-233 -237 0
-234 -235 0
-234 -236 0
-234 -237 0
-235 -236 0
-235 -237 0
-236 -237 0
-238 -239 0
-238 -240 0
-238 -241 0
-239 -240 0
-239 -241 0
-240 -241 0
-242 -243 0
-242 -244 0
-242 -245 0
-242 -246 0
-243 -244 0
-243 -245 0
-243 -246 0
-244 -245 0
-244 -246 0
-245 -246 0
-247 -248 0
-247 -249 0
-248 -249 0
-250 -251 0
-250 -252 0
-250 -253 0
-250 -254 0
-251 -252 0
-251 -253 0
-251 -254 0
-252 -253 0
-252 -254 0
-253 -254 0
-255 -256 0
-255 -257 0
-255 -258 0
-255 -259 0
-255 -260 0
-256 -257 0
-256 -258 0
-256 -259 0
-256 -260 0
-257 -258 0
-257 -259 0
-257 -260 0
-258 -259 0
-258 -260 0
-259 -260 0
-261 -262 0
-261 -263 0
-261 -264 0
-261 -265 0
-262 -263 0
-262 -264 0
-262 -265 0
-263 -264 0
-263 -265 0
-264 -265 0
-266 -267 0
-266 -268 0
-266 -269 0
-266 -270 0
-267 -268 0
-267 -269 0
-267 -270 0
-268 -269 0
-268 -270 0
-269 -270 0
-271 -272 0
-271 -273 0
-272 -273 0
-274 -275 0
-274 -276 0
-274 -277 0
-274 -278 0
-275 -276 0
-275 -277 0
-275 -278 0
-276 -277 0
-276 -278 0
-277 -278 0
-279 -280 0
-279 -281 0
-280 -281 0
-282 -283 0
-282 -284 0
-282 -285 0
-282 -286 0
-282 -287 0
-283 -284 0
-283 -285 0
-283 -286 0
-283 -287 0
-284 -285 0
-284 -286 0
-284 -287 0
-285 -286 0
-285 -287 0
-286 -287 0
-288 -289 0
-288 -290 0
-288 -291 0
-289 -290 0
-289 -291 0
-290 -291 0
-292 -293 0
-292 -294 0
-292 -295 0
-292 -296 0
-293 -294 0
-293 -295 0
-293 -296 0
-294 -295 0
-294 -296 0
-295 -296 0
-297 -298 0
-297 -299 0
-297 -300 0
-297 -301 0
-298 -299 0
-298 -300 0
-298 -301 0
-299 -300 0
-299 -301 0
-300 -301 0
-1 -5 0
-1 -10 0
-5 -10 0
-2 -11 0
-2 -16 0
-2 -19 0
-2 -22 0
-2 -26 0
-11 -16 0
-11 -19 0
-11 -22 0
-11 -26 0
-16 -19 0
-16 -22 0
-16 -26 0
-19 -22 0
-19 -26 0
-22 -26 0
-3 -6 0
-3 -12 0
-3 -17 0
-3 -23 0
-3 -27 0
-6 -12 0
-6 -17 0
-6 -23 0
-6 -27 0
-12 -17 0
-12 -23 0
-12 -27 0
-17 -23 0
-17 -27 0
-23 -27 0
-7 -13 0
-8 -14 0
-8 -28 0
-14 -28 0
-20 -24 0
-20 -29 0
-24 -29 0
-4 -9 0
-4 -15 0
-4 -18 0
-4 -21 0
-4 -25 0
-4 -30 0
-9 -15 0
-9 -18 0
-9 -21 0
-9 -25 0
-9 -30 0
-15 -18 0
-15 -21 0
-15 -25 0
-15 -30 0
-18 -21 0
-18 -25 0
-18 -30 0
-21 -25 0
-21 -30 0
-25 -30 0
-35 -42 0
-35 -45 0
-42 -45 0
-36 -43 0
-36 -46 0
-36 -54 0
-36 -58 0
-43 -46 0
-43 -54 0
-43 -58 0
-46 -54 0
-46 -58 0
-54 -58 0
-31 -37 0
-31 -47 0
-31 -50 0
-31 -55 0
-31 -59 0
-37 -47 0
-37 -50 0
-37 -55 0
-37 -59 0
-47 -50 0
-47 -55 0
-47 -59 0
-50 -55 0
-50 -59 0
-55 -59 0
-32 -38 0
-32 -51 0
-32 -60 0
-38 -51 0
-38 -60 0
-51 -60 0
-33 -39 0
-33 -52 0
-33 -56 0
-33 -61 0
-39 -52 0
-39 -56 0
-39 -61 0
-52 -56 0
-52 -61 0
-56 -61 0
-40 -48 0
-34 -41 0
-34 -44 0
-34 -49 0
-34 -53 0
-34 -57 0
-34 -62 0
-41 -44 0
-41 -49 0
-41 -53 0
-41 -57 0
-41 -62 0
-44 -49 0
-44 -53 0
-44 -57 0
-44 -62 0
-49 -53 0
-49 -57 0
-49 -62 0
-53 -57 0
-53 -62 0
-57 -62 0
-63 -72 0
-63 -78 0
-72 -78 0
-64 -69 0
-64 -73 0
-64 -82 0
-64 -90 0
-69 -73 0
-69 -82 0
-69 -90 0
-73 -82 0
-73 -90 0
-82 -90 0
-65 -74 0
-65 -79 0
-65 -86 0
-65 -91 0
-74 -79 0
-74 -86 0
-74 -91 0
-79 -86 0
-79 -91 0
-86 -91 0
-66 -70 0
-66 -75 0
-66 -83 0
-66 -87 0
-66 -92 0
-70 -75 0
-70 -83 0
-70 -87 0
-70 -92 0
-75 -83 0
-75 -87 0
-75 -92 0
-83 -87 0
-83 -92 0
-87 -92 0
-80 -84 0
-80 -88 0
-80 -93 0
-84 -88 0
-84 -93 0
-88 -93 0
-67 -76 0
-68 -71 0
-68 -77 0
-68 -81 0
-68 -85 0
-68 -89 0
-68 -94 0
-71 -77 0
-71 -81 0
-71 -85 0
-71 -89 0
-71 -94 0
-77 -81 0
-77 -85 0
-77 -89 0
-77 -94 0
-81 -85 0
-81 -89 0
-81 -94 0
-85 -89 0
-85 -94 0
-89 -94 0
-108 -113 0
-108 -119 0
-113 -119 0
-95 -99 0
-95 -103 0
-95 -109 0
-95 -114 0
-95 -120 0
-95 -124 0
-99 -103 0
-99 -109 0
-99 -114 0
-99 -120 0
-99 -124 0
-103 -109 0
-103 -114 0
-103 -120 0
-103 -124 0
-109 -114 0
-109 -120 0
-109 -124 0
-114 -120 0
-114 -124 0
-120 -124 0
-96 -104 0
-96 -110 0
-96 -115 0
-104 -110 0
-104 -115 0
-110 -115 0
-97 -100 0
-97 -105 0
-97 -116 0
-97 -121 0
-97 -125 0
-100 -105 0
-100 -116 0
-100 -121 0
-100 -125 0
-105 -116 0
-105 -121 0
-105 -125 0
-116 -121 0
-116 -125 0
-121 -125 0
-101 -106 0
-101 -111 0
-101 -122 0
-101 -126 0
-106 -111 0
-106 -122 0
-106 -126 0
-111 -122 0
-111 -126 0
-122 -126 0
-117 -127 0
-98 -102 0
-98 -107 0
-98 -112 0
-98 -118 0
-98 -123 0
-98 -128 0
-102 -107 0
-102 -112 0
-102 -118 0
-102 -123 0
-102 -128 0
-107 -112 0
-107 -118 0
-107 -123 0
-107 -128 0
-112 -118 0
-112 -123 0
-112 -128 0
-118 -123 0
-118 -128 0
-123 -128 0
-129 -132 0
-129 -142 0
-129 -146 0
-129 -156 0
-132 -142 0
-132 -146 0
-132 -156 0
-142 -146 0
-142 -156 0
-146 -156 0
-130 -133 0
-130 -138 0
-130 -147 0
-130 -151 0
-130 -157 0
-133 -138 0
-133 -147 0
-133 -151 0
-133 -157 0
-138 -147 0
-138 -151 0
-138 -157 0
-147 -151 0
-147 -157 0
-151 -157 0
-134 -143 0
-134 -148 0
-143 -148 0
-135 -139 0
-135 -144 0
-135 -152 0
-135 -158 0
-139 -144 0
-139 -152 0
-139 -158 0
-144 -152 0
-144 -158 0
-152 -158 0
-136 -153 0
-136 -159 0
-153 -159 0
-140 -149 0
-140 -154 0
-140 -160 0
-149 -154 0
-149 -160 0
-154 -160 0
-131 -137 0
-131 -141 0
-131 -145 0
-131 -150 0
-131 -155 0
-131 -161 0
-137 -141 0
-137 -145 0
-137 -150 0
-137 -155 0
-137 -161 0
-141 -145 0
-141 -150 0
-141 -155 0
-141 -161 0
-145 -150 0
-145 -155 0
-145 -161 0
-150 -155 0
-150 -161 0
-155 -161 0
-173 -178 0
-173 -184 0
-173 -190 0
-173 -196 0
-178 -184 0
-178 -190 0
-178 -196 0
-184 -190 0
-184 -196 0
-190 -196 0
-162 -166 0
-162 -179 0
-162 -185 0
-162 -191 0
-162 -201 0
-166 -179 0
-166 -185 0
-166 -191 0
-166 -201 0
-179 -185 0
-179 -191 0
-179 -201 0
-185 -191 0
-185 -201 0
-191 -201 0
-163 -167 0
-163 -174 0
-163 -180 0
-163 -186 0
-167 -174 0
-167 -180 0
-167 -186 0
-174 -180 0
-174 -186 0
-180 -186 0
-164 -168 0
-164 -175 0
-164 -187 0
-164 -192 0
-164 -197 0
-164 -202 0
-168 -175 0
-168 -187 0
-168 -192 0
-168 -197 0
-168 -202 0
-175 -187 0
-175 -192 0
-175 -197 0
-175 -202 0
-187 -192 0
-187 -197 0
-187 -202 0
-192 -197 0
-192 -202 0
-197 -202 0
-169 -181 0
-169 -188 0
-181 -188 0
-170 -176 0
-170 -182 0
-170 -193 0
-170 -198 0
-170 -203 0
-176 -182 0
-176 -193 0
-176 -198 0
-176 -203 0
-182 -193 0
-182 -198 0
-182 -203 0
-193 -198 0
-193 -203 0
-198 -203 0
-171 -194 0
-171 -199 0
-171 -204 0
-194 -199 0
-194 -204 0
-199 -204 0
-165 -172 0
-165 -177 0
-165 -183 0
-165 -189 0
-165 -195 0
-165 -200 0
-165 -205 0
-172 -177 0
-172 -183 0
-172 -189 0
-172 -195 0
-172 -200 0
-172 -205 0
-177 -183 0
-177 -189 0
-177 -195 0
-177 -200 0
-177 -205 0
-183 -189 0
-183 -195 0
-183 -200 0
-183 -205 0
-189 -195 0
-189 -200 0
-189 -205 0
-195 -200 0
-195 -205 0
-200 -205 0
-209 -214 0
-209 -218 0
-209 -223 0
-209 -227 0
-214 -218 0
-214 -223 0
-214 -227 0
-218 -223 0
-218 -227 0
-223 -227 0
-215 -219 0
-215 -224 0
-215 -232 0
-219 -224 0
-219 -232 0
-224 -232 0
-206 -210 0
-206 -228 0
-206 -233 0
-210 -228 0
-210 -233 0
-228 -233 0
-216 -220 0
-216 -229 0
-216 -234 0
-220 -229 0
-220 -234 0
-229 -234 0
-207 -211 0
-207 -221 0
-207 -225 0
-207 -230 0
-207 -235 0
-211 -221 0
-211 -225 0
-211 -230 0
-211 -235 0
-221 -225 0
-221 -230 0
-221 -235 0
-225 -230 0
-225 -235 0
-230 -235 0
-212 -236 0
-208 -213 0
-208 -217 0
-208 -222 0
-208 -226 0
-208 -231 0
-208 -237 0
-213 -217 0
-213 -222 0
-213 -226 0
-213 -231 0
-213 -237 0
-217 -222 0
-217 -226 0
-217 -231 0
-217 -237 0
-222 -226 0
-222 -231 0
-222 -237 0
-226 -231 0
-226 -237 0
-231 -237 0
-238 -242 0
-238 -247 0
-238 -250 0
-238 -255 0
-238 -261 0
-242 -247 0
-242 -250 0
-242 -255 0
-242 -261 0
-247 -250 0
-247 -255 0
-247 -261 0
-250 -255 0
-250 -261 0
-255 -261 0
-239 -243 0
-239 -251 0
-243 -251 0
-240 -244 0
-240 -256 0
-240 -262 0
-240 -266 0
-244 -256 0
-244 -262 0
-244 -266 0
-256 -262 0
-256 -266 0
-262 -266 0
-252 -257 0
-252 -267 0
-257 -267 0
-248 -258 0
-248 -263 0
-248 -268 0
-258 -263 0
-258 -268 0
-263 -268 0
-245 -253 0
-245 -259 0
-245 -264 0
-245 -269 0
-253 -259 0
-253 -264 0
-253 -269 0
-259 -264 0
-259 -269 0
-264 -269 0
-241 -246 0
-241 -249 0
-241 -254 0
-241 -260 0
-241 -265 0
-241 -270 0
-246 -249 0
-246 -254 0
-246 -260 0
-246 -265 0
-246 -270 0
-249 -254 0
-249 -260 0
-249 -265 0
-249 -270 0
-254 -260 0
-254 -265 0
-254 -270 0
-260 -265 0
-260 -270 0
-265 -270 0
-274 -279 0
-274 -282 0
-274 -288 0
-274 -292 0
-279 -282 0
-279 -288 0
-279 -292 0
-282 -288 0
-282 -292 0
-288 -292 0
-271 -275 0
-271 -283 0
-275 -283 0
-280 -284 0
-280 -293 0
-280 -297 0
-284 -293 0
-284 -297 0
-293 -297 0
-285 -289 0
-285 -298 0
-289 -298 0
-272 -276 0
-272 -286 0
-272 -290 0
-272 -294 0
-272 -299 0
-276 -286 0
-276 -290 0
-276 -294 0
-276 -299 0
-286 -290 0
-286 -294 0
-286 -299 0
-290 -294 0
-290 -299 0
-294 -299 0
-277 -295 0
-277 -300 0
-295 -300 0
-273 -278 0
-273 -281 0
-273 -287 0
-273 -291 0
-273 -296 0
-273 -301 0
-278 -281 0
-278 -287 0
-278 -291 0
-278 -296 0
-278 -301 0
-281 -287 0
-281 -291 0
-281 -296 0
-281 -301 0
-287 -291 0
-287 -296 0
-287 -301 0
-291 -296 0
-291 -301 0
-296 -301 0
-63 -238 0
-1 -64 0
-1 -95 0
-1 -129 0
-1 -162 0
-1 -239 0
-64 -95 0
-64 -129 0
-64 -162 0
-64 -239 0
-95 -129 0
-95 -162 0
-95 -239 0
-129 -162 0
-129 -239 0
-162 -239 0
-2 -65 0
-2 -96 0
-2 -163 0
-65 -96 0
-65 -163 0
-96 -163 0
-3 -66 0
-3 -97 0
-3 -130 0
-3 -164 0
-3 -240 0
-66 -97 0
-66 -130 0
-66 -164 0
-66 -240 0
-97 -130 0
-97 -164 0
-97 -240 0
-130 -164 0
-130 -240 0
-164 -240 0
-4 -68 0
-4 -98 0
-4 -131 0
-4 -165 0
-4 -241 0
-68 -98 0
-68 -131 0
-68 -165 0
-68 -241 0
-98 -131 0
-98 -165 0
-98 -241 0
-131 -165 0
-131 -241 0
-165 -241 0
-5 -69 0
-5 -99 0
-5 -271 0
-69 -99 0
-69 -271 0
-99 -271 0
-6 -31 0
-6 -70 0
-6 -100 0
-6 -206 0
-31 -70 0
-31 -100 0
-31 -206 0
-70 -100 0
-70 -206 0
-100 -206 0
-7 -32 0
-8 -33 0
-8 -101 0
-33 -101 0
-207 -272 0
-9 -34 0
-9 -71 0
-9 -102 0
-9 -208 0
-9 -273 0
-34 -71 0
-34 -102 0
-34 -208 0
-34 -273 0
-71 -102 0
-71 -208 0
-71 -273 0
-102 -208 0
-102 -273 0
-208 -273 0
-35 -72 0
-35 -209 0
-35 -242 0
-35 -274 0
-72 -209 0
-72 -242 0
-72 -274 0
-209 -242 0
-209 -274 0
-242 -274 0
-10 -73 0
-10 -103 0
-10 -132 0
-10 -166 0
-10 -243 0
-10 -275 0
-73 -103 0
-73 -132 0
-73 -166 0
-73 -243 0
-73 -275 0
-103 -132 0
-103 -166 0
-103 -243 0
-103 -275 0
-132 -166 0
-132 -243 0
-132 -275 0
-166 -243 0
-166 -275 0
-243 -275 0
-11 -36 0
-11 -74 0
-11 -104 0
-11 -167 0
-36 -74 0
-36 -104 0
-36 -167 0
-74 -104 0
-74 -167 0
-104 -167 0
-12 -37 0
-12 -75 0
-12 -105 0
-12 -133 0
-12 -168 0
-12 -210 0
-12 -244 0
-37 -75 0
-37 -105 0
-37 -133 0
-37 -168 0
-37 -210 0
-37 -244 0
-75 -105 0
-75 -133 0
-75 -168 0
-75 -210 0
-75 -244 0
-105 -133 0
-105 -168 0
-105 -210 0
-105 -244 0
-133 -168 0
-133 -210 0
-133 -244 0
-168 -210 0
-168 -244 0
-210 -244 0
-13 -38 0
-13 -134 0
-13 -169 0
-38 -134 0
-38 -169 0
-134 -169 0
-14 -39 0
-14 -106 0
-14 -135 0
-14 -170 0
-39 -106 0
-39 -135 0
-39 -170 0
-106 -135 0
-106 -170 0
-135 -170 0
-136 -171 0
-136 -211 0
-136 -245 0
-136 -276 0
-171 -211 0
-171 -245 0
-171 -276 0
-211 -245 0
-211 -276 0
-245 -276 0
-40 -76 0
-40 -212 0
-40 -277 0
-76 -212 0
-76 -277 0
-212 -277 0
-15 -41 0
-15 -77 0
-15 -107 0
-15 -137 0
-15 -172 0
-15 -213 0
-15 -246 0
-15 -278 0
-41 -77 0
-41 -107 0
-41 -137 0
-41 -172 0
-41 -213 0
-41 -246 0
-41 -278 0
-77 -107 0
-77 -137 0
-77 -172 0
-77 -213 0
-77 -246 0
-77 -278 0
-107 -137 0
-107 -172 0
-107 -213 0
-107 -246 0
-107 -278 0
-137 -172 0
-137 -213 0
-137 -246 0
-137 -278 0
-172 -213 0
-172 -246 0
-172 -278 0
-213 -246 0
-213 -278 0
-246 -278 0
-173 -214 0
-173 -247 0
-173 -279 0
-214 -247 0
-214 -279 0
-247 -279 0
-16 -174 0
-16 -215 0
-16 -280 0
-174 -215 0
-174 -280 0
-215 -280 0
-17 -138 0
-17 -175 0
-138 -175 0
-139 -176 0
-139 -216 0
-139 -248 0
-176 -216 0
-176 -248 0
-216 -248 0
-18 -141 0
-18 -177 0
-18 -217 0
-18 -249 0
-18 -281 0
-141 -177 0
-141 -217 0
-141 -249 0
-141 -281 0
-177 -217 0
-177 -249 0
-177 -281 0
-217 -249 0
-217 -281 0
-249 -281 0
-42 -78 0
-42 -108 0
-42 -178 0
-42 -218 0
-78 -108 0
-78 -178 0
-78 -218 0
-108 -178 0
-108 -218 0
-178 -218 0
-109 -142 0
-109 -179 0
-142 -179 0
-19 -43 0
-19 -79 0
-19 -110 0
-19 -180 0
-19 -219 0
-43 -79 0
-43 -110 0
-43 -180 0
-43 -219 0
-79 -110 0
-79 -180 0
-79 -219 0
-110 -180 0
-110 -219 0
-180 -219 0
-143 -181 0
-111 -144 0
-111 -182 0
-111 -220 0
-144 -182 0
-144 -220 0
-182 -220 0
-20 -80 0
-20 -221 0
-80 -221 0
-21 -44 0
-21 -81 0
-21 -112 0
-21 -145 0
-21 -183 0
-21 -222 0
-44 -81 0
-44 -112 0
-44 -145 0
-44 -183 0
-44 -222 0
-81 -112 0
-81 -145 0
-81 -183 0
-81 -222 0
-112 -145 0
-112 -183 0
-112 -222 0
-145 -183 0
-145 -222 0
-183 -222 0
-45 -113 0
-45 -184 0
-45 -223 0
-45 -250 0
-45 -282 0
-113 -184 0
-113 -223 0
-113 -250 0
-113 -282 0
-184 -223 0
-184 -250 0
-184 -282 0
-223 -250 0
-223 -282 0
-250 -282 0
-114 -146 0
-114 -185 0
-114 -251 0
-114 -283 0
-146 -185 0
-146 -251 0
-146 -283 0
-185 -251 0
-185 -283 0
-251 -283 0
-22 -46 0
-22 -115 0
-22 -186 0
-22 -224 0
-22 -284 0
-46 -115 0
-46 -186 0
-46 -224 0
-46 -284 0
-115 -186 0
-115 -224 0
-115 -284 0
-186 -224 0
-186 -284 0
-224 -284 0
-23 -47 0
-23 -116 0
-23 -147 0
-23 -187 0
-47 -116 0
-47 -147 0
-47 -187 0
-116 -147 0
-116 -187 0
-147 -187 0
-148 -188 0
-148 -252 0
-148 -285 0
-188 -252 0
-188 -285 0
-252 -285 0
-24 -225 0
-24 -253 0
-24 -286 0
-225 -253 0
-225 -286 0
-253 -286 0
-48 -117 0
-48 -149 0
-117 -149 0
-25 -49 0
-25 -118 0
-25 -150 0
-25 -189 0
-25 -226 0
-25 -254 0
-25 -287 0
-49 -118 0
-49 -150 0
-49 -189 0
-49 -226 0
-49 -254 0
-49 -287 0
-118 -150 0
-118 -189 0
-118 -226 0
-118 -254 0
-118 -287 0
-150 -189 0
-150 -226 0
-150 -254 0
-150 -287 0
-189 -226 0
-189 -254 0
-189 -287 0
-226 -254 0
-226 -287 0
-254 -287 0
-119 -190 0
-119 -227 0
-119 -255 0
-119 -288 0
-190 -227 0
-190 -255 0
-190 -288 0
-227 -255 0
-227 -288 0
-255 -288 0
-82 -120 0
-82 -191 0
-120 -191 0
-50 -83 0
-50 -121 0
-50 -192 0
-50 -228 0
-50 -256 0
-83 -121 0
-83 -192 0
-83 -228 0
-83 -256 0
-121 -192 0
-121 -228 0
-121 -256 0
-192 -228 0
-192 -256 0
-228 -256 0
-51 -257 0
-51 -289 0
-257 -289 0
-52 -122 0
-52 -193 0
-52 -229 0
-52 -258 0
-122 -193 0
-122 -229 0
-122 -258 0
-193 -229 0
-193 -258 0
-229 -258 0
-84 -194 0
-84 -230 0
-84 -259 0
-84 -290 0
-194 -230 0
-194 -259 0
-194 -290 0
-230 -259 0
-230 -290 0
-259 -290 0
-53 -85 0
-53 -123 0
-53 -195 0
-53 -231 0
-53 -260 0
-53 -291 0
-85 -123 0
-85 -195 0
-85 -231 0
-85 -260 0
-85 -291 0
-123 -195 0
-123 -231 0
-123 -260 0
-123 -291 0
-195 -231 0
-195 -260 0
-195 -291 0
-231 -260 0
-231 -291 0
-260 -291 0
-196 -261 0
-196 -292 0
-261 -292 0
-26 -54 0
-26 -86 0
-26 -293 0
-54 -86 0
-54 -293 0
-86 -293 0
-27 -55 0
-27 -87 0
-27 -151 0
-27 -197 0
-27 -262 0
-55 -87 0
-55 -151 0
-55 -197 0
-55 -262 0
-87 -151 0
-87 -197 0
-87 -262 0
-151 -197 0
-151 -262 0
-197 -262 0
-28 -56 0
-28 -152 0
-28 -198 0
-28 -263 0
-56 -152 0
-56 -198 0
-56 -263 0
-152 -198 0
-152 -263 0
-198 -263 0
-29 -88 0
-29 -153 0
-29 -199 0
-29 -264 0
-29 -294 0
-88 -153 0
-88 -199 0
-88 -264 0
-88 -294 0
-153 -199 0
-153 -264 0
-153 -294 0
-199 -264 0
-199 -294 0
-264 -294 0
-154 -295 0
-30 -57 0
-30 -89 0
-30 -155 0
-30 -200 0
-30 -265 0
-30 -296 0
-57 -89 0
-57 -155 0
-57 -200 0
-57 -265 0
-57 -296 0
-89 -155 0
-89 -200 0
-89 -265 0
-89 -296 0
-155 -200 0
-155 -265 0
-155 -296 0
-200 -265 0
-200 -296 0
-265 -296 0
-90 -124 0
-90 -156 0
-90 -201 0
-124 -156 0
-124 -201 0
-156 -201 0
-58 -91 0
-58 -232 0
-58 -297 0
-91 -232 0
-91 -297 0
-232 -297 0
-59 -92 0
-59 -125 0
-59 -157 0
-59 -202 0
-59 -233 0
-59 -266 0
-92 -125 0
-92 -157 0
-92 -202 0
-92 -233 0
-92 -266 0
-125 -157 0
-125 -202 0
-125 -233 0
-125 -266 0
-157 -202 0
-157 -233 0
-157 -266 0
-202 -233 0
-202 -266 0
-233 -266 0
-60 -267 0
-60 -298 0
-267 -298 0
-61 -126 0
-61 -158 0
-61 -203 0
-61 -234 0
-61 -268 0
-126 -158 0
-126 -203 0
-126 -234 0
-126 -268 0
-158 -203 0
-158 -234 0
-158 -268 0
-203 -234 0
-203 -268 0
-234 -268 0
-93 -159 0
-93 -204 0
-93 -235 0
-93 -269 0
-93 -299 0
-159 -204 0
-159 -235 0
-159 -269 0
-159 -299 0
-204 -235 0
-204 -269 0
-204 -299 0
-235 -269 0
-235 -299 0
-269 -299 0
-127 -160 0
-127 -236 0
-127 -300 0
-160 -236 0
-160 -300 0
-236 -300 0
-62 -94 0
-62 -128 0
-62 -161 0
-62 -205 0
-62 -237 0
-62 -270 0
-62 -301 0
-94 -128 0
-94 -161 0
-94 -205 0
-94 -237 0
-94 -270 0
-94 -301 0
-128 -161 0
-128 -205 0
-128 -237 0
-128 -270 0
-128 -301 0
-161 -205 0
-161 -237 0
-161 -270 0
-161 -301 0
-205 -237 0
-205 -270 0
-205 -301 0
-237 -270 0
-237 -301 0
-270 -301 0
-35 -63 0
-35 -72 0
-63 -72 0
-1 -5 0
-1 -10 0
-1 -64 0
-1 -69 0
-1 -73 0
-5 -10 0
-5 -64 0
-5 -69 0
-5 -73 0
-10 -64 0
-10 -69 0
-10 -73 0
-64 -69 0
-64 -73 0
-69 -73 0
-2 -11 0
-2 -36 0
-2 -65 0
-2 -74 0
-11 -36 0
-11 -65 0
-11 -74 0
-36 -65 0
-36 -74 0
-65 -74 0
-3 -6 0
-3 -12 0
-3 -31 0
-3 -37 0
-3 -66 0
-3 -70 0
-3 -75 0
-6 -12 0
-6 -31 0
-6 -37 0
-6 -66 0
-6 -70 0
-6 -75 0
-12 -31 0
-12 -37 0
-12 -66 0
-12 -70 0
-12 -75 0
-31 -37 0
-31 -66 0
-31 -70 0
-31 -75 0
-37 -66 0
-37 -70 0
-37 -75 0
-66 -70 0
-66 -75 0
-70 -75 0
-7 -13 0
-7 -32 0
-7 -38 0
-13 -32 0
-13 -38 0
-32 -38 0
-8 -14 0
-8 -33 0
-8 -39 0
-14 -33 0
-14 -39 0
-33 -39 0
-40 -67 0
-40 -76 0
-67 -76 0
-4 -9 0
-4 -15 0
-4 -34 0
-4 -41 0
-4 -68 0
-4 -71 0
-4 -77 0
-9 -15 0
-9 -34 0
-9 -41 0
-9 -68 0
-9 -71 0
-9 -77 0
-15 -34 0
-15 -41 0
-15 -68 0
-15 -71 0
-15 -77 0
-34 -41 0
-34 -68 0
-34 -71 0
-34 -77 0
-41 -68 0
-41 -71 0
-41 -77 0
-68 -71 0
-68 -77 0
-71 -77 0
-42 -45 0
-42 -78 0
-45 -78 0
-16 -19 0
-16 -22 0
-16 -43 0
-16 -46 0
-16 -79 0
-19 -22 0
-19 -43 0
-19 -46 0
-19 -79 0
-22 -43 0
-22 -46 0
-22 -79 0
-43 -46 0
-43 -79 0
-46 -79 0
-17 -23 0
-17 -47 0
-23 -47 0
-20 -24 0
-20 -80 0
-24 -80 0
-18 -21 0
-18 -25 0
-18 -44 0
-18 -49 0
-18 -81 0
-21 -25 0
-21 -44 0
-21 -49 0
-21 -81 0
-25 -44 0
-25 -49 0
-25 -81 0
-44 -49 0
-44 -81 0
-49 -81 0
-82 -90 0
-26 -54 0
-26 -58 0
-26 -86 0
-26 -91 0
-54 -58 0
-54 -86 0
-54 -91 0
-58 -86 0
-58 -91 0
-86 -91 0
-27 -50 0
-27 -55 0
-27 -59 0
-27 -83 0
-27 -87 0
-27 -92 0
-50 -55 0
-50 -59 0
-50 -83 0
-50 -87 0
-50 -92 0
-55 -59 0
-55 -83 0
-55 -87 0
-55 -92 0
-59 -83 0
-59 -87 0
-59 -92 0
-83 -87 0
-83 -92 0
-87 -92 0
-51 -60 0
-28 -52 0
-28 -56 0
-28 -61 0
-52 -56 0
-52 -61 0
-56 -61 0
-29 -84 0
-29 -88 0
-29 -93 0
-84 -88 0
-84 -93 0
-88 -93 0
-30 -53 0
-30 -57 0
-30 -62 0
-30 -85 0
-30 -89 0
-30 -94 0
-53 -57 0
-53 -62 0
-53 -85 0
-53 -89 0
-53 -94 0
-57 -62 0
-57 -85 0
-57 -89 0
-57 -94 0
-62 -85 0
-62 -89 0
-62 -94 0
-85 -89 0
-85 -94 0
-89 -94 0
-95 -99 0
-95 -103 0
-95 -129 0
-95 -132 0
-95 -162 0
-95 -166 0
-99 -103 0
-99 -129 0
-99 -132 0
-99 -162 0
-99 -166 0
-103 -129 0
-103 -132 0
-103 -162 0
-103 -166 0
-129 -132 0
-129 -162 0
-129 -166 0
-132 -162 0
-132 -166 0
-162 -166 0
-96 -104 0
-96 -163 0
-96 -167 0
-104 -163 0
-104 -167 0
-163 -167 0
-97 -100 0
-97 -105 0
-97 -130 0
-97 -133 0
-97 -164 0
-97 -168 0
-100 -105 0
-100 -130 0
-100 -133 0
-100 -164 0
-100 -168 0
-105 -130 0
-105 -133 0
-105 -164 0
-105 -168 0
-130 -133 0
-130 -164 0
-130 -168 0
-133 -164 0
-133 -168 0
-164 -168 0
-134 -169 0
-101 -106 0
-101 -135 0
-101 -170 0
-106 -135 0
-106 -170 0
-135 -170 0
-136 -171 0
-98 -102 0
-98 -107 0
-98 -131 0
-98 -137 0
-98 -165 0
-98 -172 0
-102 -107 0
-102 -131 0
-102 -137 0
-102 -165 0
-102 -172 0
-107 -131 0
-107 -137 0
-107 -165 0
-107 -172 0
-131 -137 0
-131 -165 0
-131 -172 0
-137 -165 0
-137 -172 0
-165 -172 0
-108 -113 0
-108 -173 0
-108 -178 0
-108 -184 0
-113 -173 0
-113 -178 0
-113 -184 0
-173 -178 0
-173 -184 0
-178 -184 0
-109 -114 0
-109 -142 0
-109 -146 0
-109 -179 0
-109 -185 0
-114 -142 0
-114 -146 0
-114 -179 0
-114 -185 0
-142 -146 0
-142 -179 0
-142 -185 0
-146 -179 0
-146 -185 0
-179 -185 0
-110 -115 0
-110 -174 0
-110 -180 0
-110 -186 0
-115 -174 0
-115 -180 0
-115 -186 0
-174 -180 0
-174 -186 0
-180 -186 0
-116 -138 0
-116 -147 0
-116 -175 0
-116 -187 0
-138 -147 0
-138 -175 0
-138 -187 0
-147 -175 0
-147 -187 0
-175 -187 0
-143 -148 0
-143 -181 0
-143 -188 0
-148 -181 0
-148 -188 0
-181 -188 0
-111 -139 0
-111 -144 0
-111 -176 0
-111 -182 0
-139 -144 0
-139 -176 0
-139 -182 0
-144 -176 0
-144 -182 0
-176 -182 0
-117 -140 0
-117 -149 0
-140 -149 0
-112 -118 0
-112 -141 0
-112 -145 0
-112 -150 0
-112 -177 0
-112 -183 0
-112 -189 0
-118 -141 0
-118 -145 0
-118 -150 0
-118 -177 0
-118 -183 0
-118 -189 0
-141 -145 0
-141 -150 0
-141 -177 0
-141 -183 0
-141 -189 0
-145 -150 0
-145 -177 0
-145 -183 0
-145 -189 0
-150 -177 0
-150 -183 0
-150 -189 0
-177 -183 0
-177 -189 0
-183 -189 0
-119 -190 0
-119 -196 0
-190 -196 0
-120 -124 0
-120 -156 0
-120 -191 0
-120 -201 0
-124 -156 0
-124 -191 0
-124 -201 0
-156 -191 0
-156 -201 0
-191 -201 0
-121 -125 0
-121 -151 0
-121 -157 0
-121 -192 0
-121 -197 0
-121 -202 0
-125 -151 0
-125 -157 0
-125 -192 0
-125 -197 0
-125 -202 0
-151 -157 0
-151 -192 0
-151 -197 0
-151 -202 0
-157 -192 0
-157 -197 0
-157 -202 0
-192 -197 0
-192 -202 0
-197 -202 0
-122 -126 0
-122 -152 0
-122 -158 0
-122 -193 0
-122 -198 0
-122 -203 0
-126 -152 0
-126 -158 0
-126 -193 0
-126 -198 0
-126 -203 0
-152 -158 0
-152 -193 0
-152 -198 0
-152 -203 0
-158 -193 0
-158 -198 0
-158 -203 0
-193 -198 0
-193 -203 0
-198 -203 0
-153 -159 0
-153 -194 0
-153 -199 0
-153 -204 0
-159 -194 0
-159 -199 0
-159 -204 0
-194 -199 0
-194 -204 0
-199 -204 0
-127 -154 0
-127 -160 0
-154 -160 0
-123 -128 0
-123 -155 0
-123 -161 0
-123 -195 0
-123 -200 0
-123 -205 0
-128 -155 0
-128 -161 0
-128 -195 0
-128 -200 0
-128 -205 0
-155 -161 0
-155 -195 0
-155 -200 0
-155 -205 0
-161 -195 0
-161 -200 0
-161 -205 0
-195 -200 0
-195 -205 0
-200 -205 0
-209 -238 0
-209 -242 0
-209 -274 0
-238 -242 0
-238 -274 0
-242 -274 0
-239 -243 0
-239 -271 0
-239 -275 0
-243 -271 0
-243 -275 0
-271 -275 0
-206 -210 0
-206 -240 0
-206 -244 0
-210 -240 0
-210 -244 0
-240 -244 0
-207 -211 0
-207 -245 0
-207 -272 0
-207 -276 0
-211 -245 0
-211 -272 0
-211 -276 0
-245 -272 0
-245 -276 0
-272 -276 0
-212 -277 0
-208 -213 0
-208 -241 0
-208 -246 0
-208 -273 0
-208 -278 0
-213 -241 0
-213 -246 0
-213 -273 0
-213 -278 0
-241 -246 0
-241 -273 0
-241 -278 0
-246 -273 0
-246 -278 0
-273 -278 0
-214 -218 0
-214 -223 0
-214 -247 0
-214 -250 0
-214 -279 0
-214 -282 0
-218 -223 0
-218 -247 0
-218 -250 0
-218 -279 0
-218 -282 0
-223 -247 0
-223 -250 0
-223 -279 0
-223 -282 0
-247 -250 0
-247 -279 0
-247 -282 0
-250 -279 0
-250 -282 0
-279 -282 0
-251 -283 0
-215 -219 0
-215 -224 0
-215 -280 0
-215 -284 0
-219 -224 0
-219 -280 0
-219 -284 0
-224 -280 0
-224 -284 0
-280 -284 0
-252 -285 0
-216 -220 0
-216 -248 0
-220 -248 0
-221 -225 0
-221 -253 0
-221 -286 0
-225 -253 0
-225 -286 0
-253 -286 0
-217 -222 0
-217 -226 0
-217 -249 0
-217 -254 0
-217 -281 0
-217 -287 0
-222 -226 0
-222 -249 0
-222 -254 0
-222 -281 0
-222 -287 0
-226 -249 0
-226 -254 0
-226 -281 0
-226 -287 0
-249 -254 0
-249 -281 0
-249 -287 0
-254 -281 0
-254 -287 0
-281 -287 0
-227 -255 0
-227 -261 0
-227 -288 0
-227 -292 0
-255 -261 0
-255 -288 0
-255 -292 0
-261 -288 0
-261 -292 0
-288 -292 0
-232 -293 0
-232 -297 0
-293 -297 0
-228 -233 0
-228 -256 0
-228 -262 0
-228 -266 0
-233 -256 0
-233 -262 0
-233 -266 0
-256 -262 0
-256 -266 0
-262 -266 0
-257 -267 0
-257 -289 0
-257 -298 0
-267 -289 0
-267 -298 0
-289 -298 0
-229 -234 0
-229 -258 0
-229 -263 0
-229 -268 0
-234 -258 0
-234 -263 0
-234 -268 0
-258 -263 0
-258 -268 0
-263 -268 0
-230 -235 0
-230 -259 0
-230 -264 0
-230 -269 0
-230 -290 0
-230 -294 0
-230 -299 0
-235 -259 0
-235 -264 0
-235 -269 0
-235 -290 0
-235 -294 0
-235 -299 0
-259 -264 0
-259 -269 0
-259 -290 0
-259 -294 0
-259 -299 0
-264 -269 0
-264 -290 0
-264 -294 0
-264 -299 0
-269 -290 0
-269 -294 0
-269 -299 0
-290 -294 0
-290 -299 0
-294 -299 0
-236 -295 0
-236 -300 0
-295 -300 0
-231 -237 0
-231 -260 0
-231 -265 0
-231 -270 0
-231 -291 0
-231 -296 0
-231 -301 0
-237 -260 0
-237 -265 0
-237 -270 0
-237 -291 0
-237 -296 0
-237 -301 0
-260 -265 0
-260 -270 0
-260 -291 0
-260 -296 0
-260 -301 0
-265 -270 0
-265 -291 0
-265 -296 0
-265 -301 0
-270 -291 0
-270 -296 0
-270 -301 0
-291 -296 0
-291 -301 0
-296 -301 0
1 2 3 4 0
5 6 7 8 9 0
10 11 12 13 14 15 0
16 17 18 0
19 20 21 0
22 23 24 25 0
26 27 28 29 30 0
31 32 33 34 0
35 36 37 38 39 40 41 0
42 43 44 0
45 46 47 48 49 0
50 51 52 53 0
54 55 56 57 0
58 59 60 61 62 0
63 64 65 66 67 68 0
69 70 71 0
72 73 74 75 76 77 0
78 79 80 81 0
82 83 84 85 0
86 87 88 89 0
90 91 92 93 94 0
95 96 97 98 0
99 100 101 102 0
103 104 105 106 107 0
108 109 110 111 112 0
113 114 115 116 117 118 0
119 120 121 122 123 0
124 125 126 127 128 0
129 130 131 0
132 133 134 135 136 137 0
138 139 140 141 0
142 143 144 145 0
146 147 148 149 150 0
151 152 153 154 155 0
156 157 158 159 160 161 0
162 163 164 165 0
166 167 168 169 170 171 172 0
173 174 175 176 177 0
178 179 180 181 182 183 0
184 185 186 187 188 189 0
190 191 192 193 194 195 0
196 197 198 199 200 0
201 202 203 204 205 0
206 207 208 0
209 210 211 212 213 0
214 215 216 217 0
218 219 220 221 222 0
223 224 225 226 0
227 228 229 230 231 0
232 233 234 235 236 237 0
238 239 240 241 0
242 243 244 245 246 0
247 248 249 0
250 251 252 253 254 0
255 256 257 258 259 260 0
261 262 263 264 265 0
266 267 268 269 270 0
271 272 273 0
274 275 276 277 278 0
279 280 281 0
282 283 284 285 286 287 0
288 289 290 291 0
292 293 294 295 296 0
297 298 299 300 301 0
1 5 10 0
2 11 16 19 22 26 0
3 6 12 17 23 27 0
7 13 0
8 14 28 0
20 24 29 0
4 9 15 18 21 25 30 0
35 42 45 0
36 43 46 54 58 0
31 37 47 50 55 59 0
32 38 51 60 0
33 39 52 56 61 0
40 48 0
34 41 44 49 53 57 62 0
63 72 78 0
64 69 73 82 90 0
65 74 79 86 91 0
66 70 75 83 87 92 0
80 84 88 93 0
67 76 0
68 71 77 81 85 89 94 0
108 113 119 0
95 99 103 109 114 120 124 0
96 104 110 115 0
97 100 105 116 121 125 0
101 106 111 122 126 0
117 127 0
98 102 107 112 118 123 128 0
129 132 142 146 156 0
130 133 138 147 151 157 0
134 143 148 0
135 139 144 152 158 0
136 153 159 0
140 149 154 160 0
131 137 141 145 150 155 161 0
173 178 184 190 196 0
162 166 179 185 191 201 0
163 167 174 180 186 0
164 168 175 187 192 197 202 0
169 181 188 0
170 176 182 193 198 203 0
171 194 199 204 0
165 172 177 183 189 195 200 205 0
209 214 218 223 227 0
215 219 224 232 0
206 210 228 233 0
216 220 229 234 0
207 211 221 225 230 235 0
212 236 0
208 213 217 222 226 231 237 0
238 242 247 250 255 261 0
239 243 251 0
240 244 256 262 266 0
252 257 267 0
248 258 263 268 0
245 253 259 264 269 0
241 246 249 254 260 265 270 0
274 279 282 288 292 0
271 275 283 0
280 284 293 297 0
285 289 298 0
272 276 286 290 294 299 0
277 295 300 0
273 278 281 287 291 296 301 0
63 238 0
1 64 95 129 162 239 0
2 65 96 163 0
3 66 97 130 164 240 0
67 0
4 68 98 131 165 241 0
5 69 99 271 0
6 31 70 100 206 0
7 32 0
8 33 101 0
207 272 0
9 34 71 102 208 273 0
35 72 209 242 274 0
10 73 103 132 166 243 275 0
11 36 74 104 167 0
12 37 75 105 133 168 210 244 0
13 38 134 169 0
14 39 106 135 170 0
136 171 211 245 276 0
40 76 212 277 0
15 41 77 107 137 172 213 246 278 0
173 214 247 279 0
16 174 215 280 0
17 138 175 0
139 176 216 248 0
140 0
18 141 177 217 249 281 0
42 78 108 178 218 0
109 142 179 0
19 43 79 110 180 219 0
143 181 0
111 144 182 220 0
20 80 221 0
21 44 81 112 145 183 222 0
45 113 184 223 250 282 0
114 146 185 251 283 0
22 46 115 186 224 284 0
23 47 116 147 187 0
148 188 252 285 0
24 225 253 286 0
48 117 149 0
25 49 118 150 189 226 254 287 0
119 190 227 255 288 0
82 120 191 0
50 83 121 192 228 256 0
51 257 289 0
52 122 193 229 258 0
84 194 230 259 290 0
53 85 123 195 231 260 291 0
196 261 292 0
26 54 86 293 0
27 55 87 151 197 262 0
28 56 152 198 263 0
29 88 153 199 264 294 0
154 295 0
30 57 89 155 200 265 296 0
90 124 156 201 0
58 91 232 297 0
59 92 125 157 202 233 266 0
60 267 298 0
61 126 158 203 234 268 0
93 159 204 235 269 299 0
127 160 236 300 0
62 94 128 161 205 237 270 301 0
35 63 72 0
1 5 10 64 69 73 0
2 11 36 65 74 0
3 6 12 31 37 66 70 75 0
7 13 32 38 0
8 14 33 39 0
40 67 76 0
4 9 15 34 41 68 71 77 0
42 45 78 0
16 19 22 43 46 79 0
17 23 47 0
20 24 80 0
48 0
18 21 25 44 49 81 0
82 90 0
26 54 58 86 91 0
27 50 55 59 83 87 92 0
51 60 0
28 52 56 61 0
29 84 88 93 0
30 53 57 62 85 89 94 0
95 99 103 129 132 162 166 0
96 104 163 167 0
97 100 105 130 133 164 168 0
134 169 0
101 106 135 170 0
136 171 0
98 102 107 131 137 165 172 0
108 113 173 178 184 0
109 114 142 146 179 185 0
110 115 174 180 186 0
116 138 147 175 187 0
143 148 181 188 0
111 139 144 176 182 0
117 140 149 0
112 118 141 145 150 177 183 189 0
119 190 196 0
120 124 156 191 201 0
121 125 151 157 192 197 202 0
122 126 152 158 193 198 203 0
153 159 194 199 204 0
127 154 160 0
123 128 155 161 195 200 205 0
209 238 242 274 0
239 243 271 275 0
206 210 240 244 0
207 211 245 272 276 0
212 277 0
208 213 241 246 273 278 0
214 218 223 247 250 279 282 0
251 283 0
215 219 224 280 284 0
252 285 0
216 220 248 0
221 225 253 286 0
217 222 226 249 254 281 287 0
227 255 261 288 292 0
232 293 297 0
228 233 256 262 266 0
257 267 289 298 0
229 234 258 263 268 0
230 235 259 264 269 290 294 299 0
236 295 300 0
231 237 260 265 270 291 296 301 0
